
Gurobi 9.5.0 (win64) logging started Tue Jun 14 14:41:21 2022

Set parameter LogFile to value "../results/logs/log_socfb-Syracuse56_46_250_2022_06_14_14_41.log"
Set parameter LazyConstraints to value 1
Gurobi Optimizer version 9.5.0 build v9.5.0rc5 (win64)
Thread count: 6 physical cores, 12 logical processors, using up to 12 threads
Optimize a model with 2835 rows, 27306 columns and 173405 nonzeros
Model fingerprint: 0xa4c9ec86
Variable types: 0 continuous, 27306 integer (27306 binary)
Coefficient statistics:
  Matrix range     [1e+00, 5e+01]
  Objective range  [1e+00, 1e+00]
  Bounds range     [1e+00, 1e+00]
  RHS range        [1e+00, 3e+02]
Found heuristic solution: objective 6985.0000000
Presolve removed 0 rows and 19221 columns
Presolve time: 0.13s
Presolved: 2835 rows, 8085 columns, 60136 nonzeros
Variable types: 0 continuous, 8085 integer (8085 binary)
Found heuristic solution: objective 7064.0000000

Root relaxation: objective 8.106675e+03, 3595 iterations, 0.64 seconds (0.52 work units)

    Nodes    |    Current Node    |     Objective Bounds      |     Work
 Expl Unexpl |  Obj  Depth IntInf | Incumbent    BestBd   Gap | It/Node Time

     0     0 8106.67496    0 1044 7064.00000 8106.67496  14.8%     -    0s
H    0     0                    7098.0000000 8106.67496  14.2%     -    0s
H    0     0                    7101.0000000 8106.67496  14.2%     -    0s
     0     0 7975.92370    0 1300 7101.00000 7975.92370  12.3%     -    4s
H    0     0                    7125.0000000 7975.92370  11.9%     -    4s
H    0     0                    7366.0000000 7975.92370  8.28%     -    4s
     0     0 7904.55773    0 1475 7366.00000 7904.55773  7.31%     -    7s
     0     0 7892.98127    0 1528 7366.00000 7892.98127  7.15%     -    9s
     0     0 7891.66323    0 1540 7366.00000 7891.66323  7.14%     -   10s
     0     0 7891.49321    0 1565 7366.00000 7891.49321  7.13%     -   11s
     0     0 7891.47208    0 1579 7366.00000 7891.47208  7.13%     -   11s
